param n := 120;
param c := 1000;
param : V : p w :=
   0	 387	 377
   1	 294	 284
   2	 349	 339
   3	 376	 366
   4	 270	 260
   5	 384	 374
   6	 479	 469
   7	 263	 253
   8	 288	 278
   9	 407	 397
  10	 302	 292
  11	 321	 311
  12	 439	 429
  13	 270	 260
  14	 321	 311
  15	 458	 448
  16	 263	 253
  17	 309	 299
  18	 438	 428
  19	 279	 269
  20	 313	 303
  21	 501	 491
  22	 261	 251
  23	 268	 258
  24	 367	 357
  25	 275	 265
  26	 388	 378
  27	 360	 350
  28	 330	 320
  29	 340	 330
  30	 463	 453
  31	 260	 250
  32	 307	 297
  33	 390	 380
  34	 270	 260
  35	 370	 360
  36	 481	 471
  37	 268	 258
  38	 281	 271
  39	 401	 391
  40	 300	 290
  41	 329	 319
  42	 475	 465
  43	 264	 254
  44	 291	 281
  45	 430	 420
  46	 264	 254
  47	 336	 326
  48	 414	 404
  49	 307	 297
  50	 309	 299
  51	 374	 364
  52	 310	 300
  53	 346	 336
  54	 380	 370
  55	 313	 303
  56	 337	 327
  57	 368	 358
  58	 279	 269
  59	 383	 373
  60	 381	 371
  61	 264	 254
  62	 385	 375
  63	 461	 451
  64	 267	 257
  65	 302	 292
  66	 390	 380
  67	 305	 295
  68	 335	 325
  69	 367	 357
  70	 283	 273
  71	 380	 370
  72	 369	 359
  73	 328	 318
  74	 333	 323
  75	 467	 457
  76	 272	 262
  77	 291	 281
  78	 451	 441
  79	 265	 255
  80	 314	 304
  81	 478	 468
  82	 267	 257
  83	 285	 275
  84	 501	 491
  85	 262	 252
  86	 267	 257
  87	 369	 359
  88	 276	 266
  89	 385	 375
  90	 469	 459
  91	 262	 252
  92	 299	 289
  93	 437	 427
  94	 262	 252
  95	 331	 321
  96	 471	 461
  97	 273	 263
  98	 286	 276
  99	 435	 425
 100	 296	 286
 101	 299	 289
 102	 370	 360
 103	 287	 277
 104	 373	 363
 105	 412	 402
 106	 307	 297
 107	 311	 301
 108	 465	 455
 109	 270	 260
 110	 295	 285
 111	 503	 493
 112	 260	 250
 113	 267	 257
 114	 388	 378
 115	 309	 299
 116	 333	 323
 117	 400	 390
 118	 295	 285
 119	 335	 325
;

set E :=
   0	   1
   0	   4
   0	   7
   0	   8
   0	   9
   0	  12
   0	  13
   0	  15
   0	  17
   0	  20
   0	  22
   0	  29
   0	  30
   0	  35
   0	  36
   0	  37
   0	  38
   0	  41
   0	  42
   0	  43
   0	  46
   0	  48
   0	  49
   0	  50
   0	  51
   0	  53
   0	  55
   0	  56
   0	  59
   0	  60
   0	  61
   0	  63
   0	  64
   0	  65
   0	  66
   0	  67
   0	  69
   0	  70
   0	  72
   0	  73
   0	  76
   0	  77
   0	  78
   0	  80
   0	  82
   0	  83
   0	  84
   0	  85
   0	  87
   0	  89
   0	  92
   0	  94
   0	  95
   0	  98
   0	 101
   0	 105
   0	 106
   0	 112
   0	 114
   0	 117
   0	 118
   1	   2
   1	   4
   1	   6
   1	   7
   1	   8
   1	  10
   1	  12
   1	  13
   1	  14
   1	  15
   1	  16
   1	  18
   1	  19
   1	  24
   1	  29
   1	  30
   1	  33
   1	  36
   1	  38
   1	  39
   1	  41
   1	  42
   1	  44
   1	  47
   1	  48
   1	  49
   1	  51
   1	  52
   1	  53
   1	  56
   1	  58
   1	  60
   1	  63
   1	  64
   1	  68
   1	  69
   1	  71
   1	  72
   1	  75
   1	  78
   1	  81
   1	  82
   1	  84
   1	  88
   1	  89
   1	  90
   1	  91
   1	  92
   1	  94
   1	  95
   1	  97
   1	  98
   1	  99
   1	 100
   1	 102
   1	 104
   1	 105
   1	 106
   1	 107
   1	 109
   1	 110
   1	 114
   1	 116
   1	 117
   1	 118
   1	 119
   2	   6
   2	   8
   2	   9
   2	  11
   2	  14
   2	  15
   2	  17
   2	  20
   2	  22
   2	  23
   2	  25
   2	  26
   2	  27
   2	  28
   2	  29
   2	  31
   2	  35
   2	  36
   2	  39
   2	  40
   2	  42
   2	  43
   2	  44
   2	  45
   2	  46
   2	  47
   2	  50
   2	  51
   2	  52
   2	  53
   2	  54
   2	  57
   2	  62
   2	  64
   2	  66
   2	  72
   2	  73
   2	  74
   2	  77
   2	  78
   2	  79
   2	  80
   2	  82
   2	  83
   2	  84
   2	  90
   2	  93
   2	  95
   2	  97
   2	 103
   2	 104
   2	 110
   2	 112
   2	 113
   2	 114
   2	 115
   2	 118
   3	  10
   3	  11
   3	  12
   3	  13
   3	  15
   3	  17
   3	  18
   3	  20
   3	  21
   3	  22
   3	  24
   3	  26
   3	  28
   3	  29
   3	  34
   3	  35
   3	  36
   3	  38
   3	  40
   3	  43
   3	  45
   3	  46
   3	  48
   3	  49
   3	  52
   3	  58
   3	  59
   3	  60
   3	  61
   3	  63
   3	  65
   3	  67
   3	  68
   3	  74
   3	  77
   3	  81
   3	  82
   3	  85
   3	  86
   3	  92
   3	  97
   3	  98
   3	 100
   3	 101
   3	 102
   3	 103
   3	 106
   3	 110
   3	 111
   3	 112
   3	 113
   3	 115
   3	 116
   3	 117
   3	 118
   4	   7
   4	   8
   4	  10
   4	  11
   4	  12
   4	  13
   4	  14
   4	  16
   4	  20
   4	  21
   4	  22
   4	  24
   4	  25
   4	  26
   4	  27
   4	  28
   4	  30
   4	  31
   4	  32
   4	  37
   4	  41
   4	  42
   4	  46
   4	  47
   4	  48
   4	  50
   4	  56
   4	  57
   4	  58
   4	  59
   4	  63
   4	  67
   4	  68
   4	  74
   4	  77
   4	  84
   4	  85
   4	  88
   4	  89
   4	  90
   4	  94
   4	  95
   4	  96
   4	  98
   4	  99
   4	 101
   4	 102
   4	 104
   4	 105
   4	 106
   4	 109
   4	 111
   4	 113
   4	 114
   4	 116
   5	   9
   5	  10
   5	  11
   5	  12
   5	  13
   5	  15
   5	  16
   5	  17
   5	  19
   5	  20
   5	  24
   5	  25
   5	  26
   5	  30
   5	  33
   5	  34
   5	  36
   5	  37
   5	  41
   5	  42
   5	  44
   5	  45
   5	  47
   5	  48
   5	  52
   5	  53
   5	  54
   5	  55
   5	  56
   5	  57
   5	  58
   5	  64
   5	  67
   5	  69
   5	  71
   5	  72
   5	  73
   5	  74
   5	  79
   5	  80
   5	  83
   5	  86
   5	  87
   5	  88
   5	  91
   5	  94
   5	  97
   5	  98
   5	  99
   5	 100
   5	 102
   5	 103
   5	 104
   5	 106
   5	 108
   5	 110
   5	 115
   5	 116
   5	 117
   6	   9
   6	  10
   6	  12
   6	  15
   6	  16
   6	  22
   6	  26
   6	  27
   6	  29
   6	  30
   6	  31
   6	  37
   6	  38
   6	  39
   6	  40
   6	  42
   6	  43
   6	  44
   6	  45
   6	  46
   6	  47
   6	  49
   6	  50
   6	  52
   6	  53
   6	  54
   6	  56
   6	  65
   6	  66
   6	  69
   6	  70
   6	  71
   6	  73
   6	  74
   6	  76
   6	  77
   6	  79
   6	  83
   6	  84
   6	  85
   6	  87
   6	  88
   6	  91
   6	  92
   6	  94
   6	  95
   6	  97
   6	  99
   6	 100
   6	 101
   6	 104
   6	 109
   6	 110
   6	 112
   6	 113
   6	 114
   6	 115
   6	 116
   6	 117
   6	 118
   7	   8
   7	  12
   7	  14
   7	  17
   7	  18
   7	  21
   7	  22
   7	  24
   7	  25
   7	  27
   7	  28
   7	  30
   7	  32
   7	  33
   7	  36
   7	  37
   7	  38
   7	  39
   7	  42
   7	  43
   7	  44
   7	  46
   7	  48
   7	  49
   7	  57
   7	  58
   7	  59
   7	  61
   7	  65
   7	  66
   7	  68
   7	  73
   7	  76
   7	  78
   7	  79
   7	  83
   7	  85
   7	  90
   7	  92
   7	  93
   7	  96
   7	  97
   7	  98
   7	  99
   7	 101
   7	 103
   7	 104
   7	 105
   7	 107
   7	 108
   7	 112
   7	 115
   7	 119
   8	  10
   8	  11
   8	  12
   8	  13
   8	  15
   8	  19
   8	  21
   8	  22
   8	  24
   8	  27
   8	  31
   8	  32
   8	  33
   8	  34
   8	  35
   8	  36
   8	  41
   8	  42
   8	  44
   8	  50
   8	  52
   8	  53
   8	  56
   8	  59
   8	  64
   8	  66
   8	  70
   8	  71
   8	  74
   8	  76
   8	  79
   8	  80
   8	  81
   8	  83
   8	  84
   8	  86
   8	  87
   8	  88
   8	  89
   8	  92
   8	  93
   8	  94
   8	  96
   8	 101
   8	 102
   8	 108
   8	 109
   8	 112
   8	 115
   8	 118
   9	  10
   9	  13
   9	  15
   9	  16
   9	  17
   9	  18
   9	  21
   9	  28
   9	  29
   9	  31
   9	  33
   9	  34
   9	  37
   9	  38
   9	  45
   9	  47
   9	  48
   9	  49
   9	  50
   9	  51
   9	  52
   9	  58
   9	  59
   9	  60
   9	  61
   9	  66
   9	  68
   9	  71
   9	  74
   9	  77
   9	  78
   9	  79
   9	  81
   9	  82
   9	  83
   9	  84
   9	  85
   9	  87
   9	  90
   9	  91
   9	  93
   9	  95
   9	  97
   9	  99
   9	 103
   9	 105
   9	 114
   9	 116
   9	 119
  10	  13
  10	  17
  10	  18
  10	  20
  10	  21
  10	  22
  10	  23
  10	  24
  10	  25
  10	  27
  10	  29
  10	  30
  10	  31
  10	  32
  10	  33
  10	  35
  10	  37
  10	  39
  10	  40
  10	  41
  10	  42
  10	  46
  10	  49
  10	  52
  10	  53
  10	  54
  10	  56
  10	  57
  10	  58
  10	  60
  10	  63
  10	  64
  10	  65
  10	  67
  10	  69
  10	  70
  10	  71
  10	  72
  10	  74
  10	  77
  10	  78
  10	  80
  10	  81
  10	  82
  10	  84
  10	  86
  10	  88
  10	  89
  10	  90
  10	  91
  10	  92
  10	  94
  10	  97
  10	  98
  10	  99
  10	 103
  10	 107
  10	 108
  10	 110
  10	 111
  10	 114
  10	 115
  10	 118
  10	 119
  11	  13
  11	  14
  11	  17
  11	  20
  11	  24
  11	  25
  11	  27
  11	  30
  11	  31
  11	  33
  11	  34
  11	  35
  11	  40
  11	  41
  11	  42
  11	  47
  11	  48
  11	  49
  11	  50
  11	  51
  11	  53
  11	  54
  11	  59
  11	  60
  11	  61
  11	  62
  11	  63
  11	  66
  11	  69
  11	  70
  11	  72
  11	  73
  11	  74
  11	  75
  11	  76
  11	  79
  11	  81
  11	  82
  11	  84
  11	  85
  11	  91
  11	  92
  11	  95
  11	 100
  11	 101
  11	 104
  11	 105
  11	 106
  11	 108
  11	 113
  11	 114
  11	 116
  11	 118
  12	  13
  12	  14
  12	  15
  12	  17
  12	  19
  12	  23
  12	  26
  12	  27
  12	  31
  12	  32
  12	  41
  12	  42
  12	  43
  12	  46
  12	  47
  12	  48
  12	  53
  12	  56
  12	  60
  12	  61
  12	  62
  12	  63
  12	  65
  12	  66
  12	  68
  12	  70
  12	  73
  12	  74
  12	  75
  12	  78
  12	  82
  12	  83
  12	  84
  12	  87
  12	  90
  12	  91
  12	  92
  12	  93
  12	  95
  12	  97
  12	  98
  12	 100
  12	 101
  12	 104
  12	 106
  12	 111
  12	 115
  12	 116
  12	 117
  13	  17
  13	  18
  13	  19
  13	  20
  13	  23
  13	  24
  13	  26
  13	  27
  13	  28
  13	  29
  13	  31
  13	  33
  13	  35
  13	  36
  13	  37
  13	  40
  13	  42
  13	  43
  13	  46
  13	  47
  13	  48
  13	  49
  13	  50
  13	  52
  13	  55
  13	  56
  13	  57
  13	  58
  13	  60
  13	  62
  13	  65
  13	  66
  13	  67
  13	  68
  13	  70
  13	  72
  13	  75
  13	  78
  13	  81
  13	  84
  13	  85
  13	  87
  13	  90
  13	  92
  13	  94
  13	  95
  13	  97
  13	  98
  13	  99
  13	 101
  13	 103
  13	 104
  13	 108
  13	 109
  13	 110
  13	 111
  13	 113
  13	 116
  13	 119
  14	  15
  14	  16
  14	  18
  14	  21
  14	  28
  14	  31
  14	  32
  14	  33
  14	  34
  14	  35
  14	  38
  14	  39
  14	  40
  14	  44
  14	  47
  14	  49
  14	  54
  14	  55
  14	  63
  14	  64
  14	  65
  14	  66
  14	  69
  14	  70
  14	  73
  14	  75
  14	  78
  14	  79
  14	  80
  14	  81
  14	  85
  14	  86
  14	  87
  14	  91
  14	  92
  14	  93
  14	  95
  14	  99
  14	 102
  14	 103
  14	 106
  14	 107
  14	 110
  14	 113
  15	  16
  15	  20
  15	  25
  15	  26
  15	  29
  15	  30
  15	  32
  15	  34
  15	  39
  15	  40
  15	  42
  15	  43
  15	  44
  15	  46
  15	  48
  15	  52
  15	  55
  15	  56
  15	  58
  15	  59
  15	  61
  15	  62
  15	  63
  15	  64
  15	  65
  15	  68
  15	  72
  15	  75
  15	  76
  15	  78
  15	  79
  15	  81
  15	  82
  15	  83
  15	  85
  15	  86
  15	  90
  15	  93
  15	  94
  15	  96
  15	  98
  15	 100
  15	 101
  15	 102
  15	 105
  15	 107
  15	 110
  15	 111
  15	 115
  15	 116
  15	 119
  16	  17
  16	  19
  16	  22
  16	  23
  16	  25
  16	  26
  16	  27
  16	  31
  16	  34
  16	  35
  16	  36
  16	  37
  16	  38
  16	  42
  16	  43
  16	  45
  16	  47
  16	  48
  16	  49
  16	  50
  16	  51
  16	  52
  16	  53
  16	  54
  16	  56
  16	  60
  16	  62
  16	  67
  16	  68
  16	  69
  16	  71
  16	  78
  16	  79
  16	  80
  16	  83
  16	  84
  16	  85
  16	  86
  16	  87
  16	  88
  16	  90
  16	  91
  16	  92
  16	  93
  16	  97
  16	  98
  16	 102
  16	 105
  16	 106
  16	 111
  16	 113
  16	 114
  16	 118
  17	  20
  17	  21
  17	  23
  17	  24
  17	  26
  17	  28
  17	  29
  17	  30
  17	  31
  17	  33
  17	  34
  17	  37
  17	  38
  17	  41
  17	  42
  17	  44
  17	  45
  17	  49
  17	  53
  17	  56
  17	  57
  17	  58
  17	  60
  17	  63
  17	  66
  17	  70
  17	  72
  17	  73
  17	  75
  17	  77
  17	  79
  17	  83
  17	  85
  17	  89
  17	  94
  17	  95
  17	  96
  17	  97
  17	 100
  17	 102
  17	 106
  17	 107
  17	 109
  17	 111
  17	 113
  17	 114
  17	 115
  17	 117
  17	 119
  18	  19
  18	  23
  18	  27
  18	  29
  18	  31
  18	  32
  18	  34
  18	  36
  18	  38
  18	  39
  18	  40
  18	  42
  18	  45
  18	  48
  18	  49
  18	  51
  18	  54
  18	  55
  18	  61
  18	  64
  18	  66
  18	  67
  18	  69
  18	  70
  18	  71
  18	  72
  18	  73
  18	  74
  18	  75
  18	  76
  18	  77
  18	  78
  18	  79
  18	  80
  18	  83
  18	  84
  18	  85
  18	  87
  18	  89
  18	  90
  18	  93
  18	  94
  18	  95
  18	  96
  18	  97
  18	  99
  18	 101
  18	 104
  18	 105
  18	 115
  19	  20
  19	  21
  19	  24
  19	  26
  19	  28
  19	  31
  19	  35
  19	  36
  19	  40
  19	  43
  19	  44
  19	  45
  19	  48
  19	  49
  19	  50
  19	  51
  19	  53
  19	  54
  19	  55
  19	  56
  19	  57
  19	  59
  19	  61
  19	  62
  19	  64
  19	  68
  19	  71
  19	  72
  19	  75
  19	  77
  19	  79
  19	  82
  19	  84
  19	  85
  19	  87
  19	  90
  19	  91
  19	  93
  19	  96
  19	 101
  19	 102
  19	 104
  19	 108
  19	 109
  19	 110
  19	 111
  19	 114
  20	  21
  20	  24
  20	  25
  20	  26
  20	  28
  20	  29
  20	  31
  20	  33
  20	  41
  20	  42
  20	  43
  20	  44
  20	  45
  20	  47
  20	  48
  20	  50
  20	  52
  20	  54
  20	  55
  20	  56
  20	  58
  20	  60
  20	  61
  20	  63
  20	  64
  20	  65
  20	  66
  20	  68
  20	  70
  20	  71
  20	  73
  20	  78
  20	  79
  20	  89
  20	  91
  20	  93
  20	  96
  20	  97
  20	  98
  20	  99
  20	 102
  20	 103
  20	 105
  20	 109
  20	 110
  20	 111
  20	 118
  21	  23
  21	  24
  21	  26
  21	  27
  21	  30
  21	  31
  21	  32
  21	  34
  21	  35
  21	  36
  21	  39
  21	  40
  21	  41
  21	  42
  21	  43
  21	  44
  21	  46
  21	  48
  21	  49
  21	  50
  21	  52
  21	  53
  21	  59
  21	  62
  21	  65
  21	  66
  21	  71
  21	  74
  21	  76
  21	  77
  21	  78
  21	  83
  21	  86
  21	  87
  21	  91
  21	  92
  21	  93
  21	  94
  21	  97
  21	  98
  21	 103
  21	 105
  21	 107
  21	 109
  21	 113
  21	 115
  21	 116
  21	 117
  21	 119
  22	  25
  22	  27
  22	  28
  22	  29
  22	  33
  22	  37
  22	  38
  22	  39
  22	  40
  22	  43
  22	  44
  22	  45
  22	  46
  22	  47
  22	  48
  22	  50
  22	  52
  22	  57
  22	  58
  22	  62
  22	  63
  22	  64
  22	  69
  22	  72
  22	  73
  22	  76
  22	  77
  22	  80
  22	  82
  22	  84
  22	  85
  22	  88
  22	  89
  22	  92
  22	  93
  22	  94
  22	  95
  22	  96
  22	  97
  22	  98
  22	  99
  22	 100
  22	 105
  22	 106
  22	 107
  22	 109
  22	 110
  22	 111
  22	 113
  22	 116
  23	  28
  23	  30
  23	  31
  23	  35
  23	  37
  23	  40
  23	  42
  23	  50
  23	  51
  23	  52
  23	  53
  23	  55
  23	  56
  23	  57
  23	  60
  23	  63
  23	  67
  23	  69
  23	  70
  23	  73
  23	  75
  23	  77
  23	  79
  23	  82
  23	  86
  23	  88
  23	  89
  23	  91
  23	  92
  23	  94
  23	  95
  23	  97
  23	  98
  23	 102
  23	 104
  23	 108
  23	 112
  23	 114
  23	 119
  24	  26
  24	  27
  24	  28
  24	  30
  24	  33
  24	  34
  24	  35
  24	  36
  24	  39
  24	  40
  24	  42
  24	  46
  24	  47
  24	  50
  24	  51
  24	  53
  24	  54
  24	  55
  24	  60
  24	  61
  24	  62
  24	  63
  24	  64
  24	  67
  24	  70
  24	  72
  24	  73
  24	  76
  24	  78
  24	  79
  24	  80
  24	  81
  24	  85
  24	  86
  24	  88
  24	  89
  24	  90
  24	  91
  24	  92
  24	  98
  24	  99
  24	 100
  24	 101
  24	 102
  24	 103
  24	 104
  24	 106
  24	 109
  24	 111
  24	 113
  24	 117
  24	 118
  24	 119
  25	  32
  25	  33
  25	  36
  25	  39
  25	  41
  25	  42
  25	  44
  25	  45
  25	  47
  25	  48
  25	  49
  25	  52
  25	  53
  25	  57
  25	  58
  25	  60
  25	  63
  25	  66
  25	  67
  25	  70
  25	  71
  25	  72
  25	  73
  25	  74
  25	  75
  25	  77
  25	  78
  25	  83
  25	  87
  25	  90
  25	  91
  25	  95
  25	  97
  25	  98
  25	  99
  25	 102
  25	 104
  25	 105
  25	 106
  25	 107
  25	 108
  25	 110
  25	 112
  25	 113
  26	  28
  26	  29
  26	  31
  26	  39
  26	  40
  26	  42
  26	  47
  26	  53
  26	  54
  26	  56
  26	  59
  26	  60
  26	  65
  26	  66
  26	  67
  26	  71
  26	  72
  26	  80
  26	  84
  26	  85
  26	  87
  26	  90
  26	  91
  26	  92
  26	  95
  26	  96
  26	  98
  26	 102
  26	 103
  26	 104
  26	 106
  26	 108
  26	 109
  26	 110
  26	 113
  26	 114
  26	 115
  26	 118
  26	 119
  27	  28
  27	  29
  27	  31
  27	  32
  27	  35
  27	  36
  27	  40
  27	  42
  27	  47
  27	  48
  27	  50
  27	  51
  27	  52
  27	  53
  27	  54
  27	  55
  27	  57
  27	  59
  27	  63
  27	  64
  27	  65
  27	  69
  27	  74
  27	  75
  27	  76
  27	  78
  27	  80
  27	  82
  27	  83
  27	  87
  27	  94
  27	  96
  27	  98
  27	  99
  27	 100
  27	 102
  27	 105
  27	 106
  27	 107
  27	 110
  27	 111
  27	 112
  27	 115
  28	  29
  28	  30
  28	  32
  28	  37
  28	  38
  28	  39
  28	  40
  28	  41
  28	  42
  28	  43
  28	  44
  28	  46
  28	  47
  28	  50
  28	  51
  28	  53
  28	  58
  28	  62
  28	  63
  28	  64
  28	  66
  28	  67
  28	  69
  28	  70
  28	  72
  28	  73
  28	  74
  28	  78
  28	  82
  28	  84
  28	  88
  28	  90
  28	  91
  28	  93
  28	  96
  28	  98
  28	 102
  28	 103
  28	 106
  28	 111
  28	 113
  28	 118
  29	  30
  29	  31
  29	  32
  29	  34
  29	  35
  29	  37
  29	  39
  29	  43
  29	  44
  29	  48
  29	  50
  29	  51
  29	  54
  29	  60
  29	  62
  29	  63
  29	  64
  29	  65
  29	  66
  29	  72
  29	  73
  29	  75
  29	  77
  29	  78
  29	  80
  29	  81
  29	  85
  29	  86
  29	  87
  29	  89
  29	  92
  29	  94
  29	 100
  29	 104
  29	 108
  29	 109
  29	 110
  29	 114
  29	 115
  29	 116
  29	 118
  29	 119
  30	  32
  30	  34
  30	  35
  30	  36
  30	  38
  30	  40
  30	  41
  30	  43
  30	  44
  30	  45
  30	  46
  30	  47
  30	  48
  30	  49
  30	  52
  30	  53
  30	  56
  30	  58
  30	  59
  30	  61
  30	  66
  30	  68
  30	  69
  30	  71
  30	  73
  30	  74
  30	  76
  30	  77
  30	  79
  30	  81
  30	  83
  30	  84
  30	  86
  30	  87
  30	  90
  30	  91
  30	  92
  30	  93
  30	  94
  30	  95
  30	  96
  30	  98
  30	  99
  30	 100
  30	 101
  30	 104
  30	 105
  30	 108
  30	 111
  30	 112
  30	 113
  30	 114
  30	 117
  30	 119
  31	  35
  31	  36
  31	  37
  31	  39
  31	  40
  31	  41
  31	  42
  31	  46
  31	  49
  31	  50
  31	  52
  31	  58
  31	  59
  31	  61
  31	  63
  31	  64
  31	  65
  31	  66
  31	  67
  31	  69
  31	  70
  31	  71
  31	  72
  31	  73
  31	  76
  31	  77
  31	  83
  31	  85
  31	  86
  31	  89
  31	  93
  31	  98
  31	  99
  31	 100
  31	 102
  31	 104
  31	 106
  31	 108
  31	 110
  31	 113
  31	 115
  31	 118
  32	  33
  32	  35
  32	  37
  32	  38
  32	  39
  32	  41
  32	  42
  32	  43
  32	  45
  32	  46
  32	  48
  32	  49
  32	  50
  32	  51
  32	  54
  32	  55
  32	  59
  32	  62
  32	  65
  32	  66
  32	  67
  32	  68
  32	  69
  32	  70
  32	  72
  32	  73
  32	  74
  32	  78
  32	  80
  32	  83
  32	  84
  32	  85
  32	  87
  32	  90
  32	  93
  32	  94
  32	 101
  32	 103
  32	 104
  32	 107
  32	 108
  32	 109
  32	 110
  32	 112
  32	 113
  32	 115
  33	  34
  33	  36
  33	  38
  33	  40
  33	  42
  33	  43
  33	  44
  33	  47
  33	  48
  33	  51
  33	  52
  33	  53
  33	  54
  33	  55
  33	  59
  33	  60
  33	  61
  33	  65
  33	  66
  33	  67
  33	  69
  33	  70
  33	  71
  33	  73
  33	  76
  33	  77
  33	  78
  33	  79
  33	  80
  33	  81
  33	  83
  33	  84
  33	  85
  33	  89
  33	  91
  33	  92
  33	  95
  33	  97
  33	  99
  33	 101
  33	 103
  33	 110
  33	 112
  33	 115
  33	 117
  33	 118
  33	 119
  34	  35
  34	  38
  34	  39
  34	  41
  34	  43
  34	  44
  34	  47
  34	  49
  34	  54
  34	  55
  34	  56
  34	  57
  34	  64
  34	  66
  34	  68
  34	  69
  34	  71
  34	  72
  34	  73
  34	  80
  34	  81
  34	  84
  34	  86
  34	  88
  34	  90
  34	  91
  34	  93
  34	  95
  34	  96
  34	  97
  34	 100
  34	 103
  34	 104
  34	 107
  34	 109
  34	 110
  34	 111
  34	 112
  34	 114
  34	 115
  34	 116
  34	 117
  34	 119
  35	  36
  35	  40
  35	  41
  35	  44
  35	  45
  35	  46
  35	  50
  35	  54
  35	  55
  35	  58
  35	  60
  35	  61
  35	  63
  35	  64
  35	  65
  35	  67
  35	  69
  35	  70
  35	  71
  35	  72
  35	  73
  35	  74
  35	  75
  35	  76
  35	  78
  35	  82
  35	  83
  35	  85
  35	  91
  35	  92
  35	  93
  35	  94
  35	  97
  35	  98
  35	  99
  35	 100
  35	 101
  35	 103
  35	 105
  35	 110
  35	 111
  35	 112
  35	 113
  35	 114
  35	 115
  35	 117
  35	 118
  36	  37
  36	  46
  36	  50
  36	  51
  36	  53
  36	  56
  36	  59
  36	  60
  36	  61
  36	  62
  36	  63
  36	  65
  36	  67
  36	  70
  36	  71
  36	  72
  36	  73
  36	  74
  36	  75
  36	  76
  36	  80
  36	  83
  36	  86
  36	  89
  36	  90
  36	  91
  36	  94
  36	  96
  36	  97
  36	 102
  36	 103
  36	 104
  36	 105
  36	 108
  36	 109
  36	 111
  36	 112
  36	 118
  37	  38
  37	  41
  37	  43
  37	  44
  37	  45
  37	  48
  37	  49
  37	  50
  37	  54
  37	  55
  37	  56
  37	  57
  37	  59
  37	  60
  37	  61
  37	  62
  37	  68
  37	  73
  37	  75
  37	  78
  37	  79
  37	  80
  37	  81
  37	  82
  37	  83
  37	  86
  37	  88
  37	  89
  37	  90
  37	  92
  37	  94
  37	  95
  37	  96
  37	 100
  37	 101
  37	 102
  37	 104
  37	 105
  37	 106
  37	 107
  37	 108
  37	 110
  37	 111
  37	 112
  37	 114
  37	 116
  37	 118
  38	  39
  38	  42
  38	  43
  38	  44
  38	  48
  38	  49
  38	  51
  38	  53
  38	  54
  38	  55
  38	  56
  38	  58
  38	  59
  38	  61
  38	  64
  38	  66
  38	  68
  38	  70
  38	  71
  38	  73
  38	  74
  38	  76
  38	  77
  38	  78
  38	  79
  38	  80
  38	  81
  38	  82
  38	  85
  38	  89
  38	  91
  38	  93
  38	  95
  38	  96
  38	  97
  38	  98
  38	  99
  38	 100
  38	 102
  38	 105
  38	 106
  38	 107
  38	 109
  38	 112
  38	 113
  38	 114
  38	 116
  38	 117
  38	 118
  38	 119
  39	  40
  39	  42
  39	  44
  39	  45
  39	  47
  39	  49
  39	  51
  39	  53
  39	  54
  39	  56
  39	  57
  39	  58
  39	  59
  39	  61
  39	  66
  39	  68
  39	  70
  39	  72
  39	  73
  39	  74
  39	  76
  39	  80
  39	  81
  39	  82
  39	  86
  39	  87
  39	  88
  39	  93
  39	  94
  39	  95
  39	  97
  39	 101
  39	 103
  39	 105
  39	 107
  39	 111
  39	 112
  39	 113
  39	 114
  39	 116
  39	 117
  39	 119
  40	  42
  40	  45
  40	  46
  40	  48
  40	  49
  40	  50
  40	  51
  40	  52
  40	  54
  40	  55
  40	  60
  40	  61
  40	  62
  40	  63
  40	  65
  40	  66
  40	  67
  40	  68
  40	  69
  40	  73
  40	  78
  40	  79
  40	  80
  40	  81
  40	  82
  40	  84
  40	  86
  40	  88
  40	  90
  40	  91
  40	  93
  40	  98
  40	  99
  40	 100
  40	 101
  40	 103
  40	 106
  40	 107
  40	 108
  40	 110
  40	 112
  40	 113
  40	 116
  41	  43
  41	  44
  41	  45
  41	  46
  41	  47
  41	  48
  41	  50
  41	  51
  41	  52
  41	  53
  41	  58
  41	  60
  41	  63
  41	  66
  41	  67
  41	  68
  41	  69
  41	  70
  41	  73
  41	  75
  41	  79
  41	  81
  41	  83
  41	  84
  41	  88
  41	  91
  41	  92
  41	  93
  41	  99
  41	 101
  41	 103
  41	 105
  41	 106
  41	 107
  41	 109
  41	 114
  41	 115
  41	 116
  41	 117
  41	 119
  42	  47
  42	  49
  42	  50
  42	  51
  42	  55
  42	  60
  42	  62
  42	  63
  42	  64
  42	  65
  42	  66
  42	  68
  42	  69
  42	  73
  42	  75
  42	  76
  42	  78
  42	  79
  42	  80
  42	  81
  42	  82
  42	  83
  42	  84
  42	  86
  42	  87
  42	  88
  42	  89
  42	  95
  42	  96
  42	  99
  42	 100
  42	 101
  42	 106
  42	 107
  42	 108
  42	 111
  42	 114
  42	 115
  43	  44
  43	  45
  43	  47
  43	  48
  43	  49
  43	  50
  43	  54
  43	  56
  43	  57
  43	  60
  43	  61
  43	  63
  43	  64
  43	  69
  43	  71
  43	  72
  43	  73
  43	  75
  43	  78
  43	  79
  43	  80
  43	  81
  43	  82
  43	  83
  43	  85
  43	  86
  43	  87
  43	  88
  43	  90
  43	  92
  43	  95
  43	  99
  43	 100
  43	 101
  43	 105
  43	 108
  43	 110
  43	 112
  43	 114
  43	 116
  43	 117
  43	 118
  43	 119
  44	  45
  44	  47
  44	  50
  44	  51
  44	  53
  44	  61
  44	  62
  44	  63
  44	  66
  44	  68
  44	  69
  44	  76
  44	  77
  44	  79
  44	  81
  44	  85
  44	  90
  44	  91
  44	  92
  44	  97
  44	 100
  44	 101
  44	 102
  44	 103
  44	 104
  44	 106
  44	 108
  44	 112
  44	 113
  44	 114
  44	 119
  45	  46
  45	  48
  45	  49
  45	  52
  45	  54
  45	  55
  45	  56
  45	  60
  45	  62
  45	  63
  45	  67
  45	  69
  45	  71
  45	  72
  45	  73
  45	  74
  45	  75
  45	  76
  45	  77
  45	  79
  45	  81
  45	  82
  45	  89
  45	  90
  45	  92
  45	  93
  45	  94
  45	  97
  45	  98
  45	  99
  45	 106
  45	 108
  45	 109
  45	 110
  45	 111
  45	 114
  45	 115
  45	 117
  45	 118
  46	  47
  46	  50
  46	  51
  46	  54
  46	  55
  46	  56
  46	  59
  46	  62
  46	  65
  46	  66
  46	  67
  46	  69
  46	  70
  46	  73
  46	  75
  46	  76
  46	  77
  46	  79
  46	  83
  46	  84
  46	  87
  46	  91
  46	  92
  46	  94
  46	  95
  46	  97
  46	  98
  46	 101
  46	 108
  46	 109
  46	 112
  46	 116
  46	 117
  46	 119
  47	  51
  47	  53
  47	  54
  47	  57
  47	  59
  47	  60
  47	  64
  47	  65
  47	  68
  47	  72
  47	  74
  47	  75
  47	  76
  47	  78
  47	  79
  47	  83
  47	  86
  47	  92
  47	  94
  47	  96
  47	 100
  47	 103
  47	 105
  47	 107
  47	 111
  47	 116
  47	 117
  47	 119
  48	  49
  48	  52
  48	  53
  48	  57
  48	  60
  48	  62
  48	  64
  48	  66
  48	  67
  48	  68
  48	  69
  48	  70
  48	  76
  48	  77
  48	  84
  48	  86
  48	  87
  48	  88
  48	  91
  48	  92
  48	  93
  48	  94
  48	  96
  48	  97
  48	 104
  48	 107
  48	 108
  48	 111
  48	 113
  48	 114
  48	 115
  48	 119
  49	  53
  49	  54
  49	  58
  49	  60
  49	  61
  49	  62
  49	  63
  49	  64
  49	  65
  49	  66
  49	  67
  49	  68
  49	  70
  49	  71
  49	  73
  49	  74
  49	  75
  49	  76
  49	  79
  49	  80
  49	  82
  49	  84
  49	  88
  49	  89
  49	  90
  49	  91
  49	  92
  49	  94
  49	  96
  49	 102
  49	 104
  49	 108
  49	 110
  49	 111
  49	 112
  50	  51
  50	  52
  50	  53
  50	  54
  50	  56
  50	  57
  50	  59
  50	  62
  50	  63
  50	  65
  50	  66
  50	  68
  50	  71
  50	  72
  50	  74
  50	  78
  50	  79
  50	  81
  50	  82
  50	  84
  50	  92
  50	  94
  50	  96
  50	  98
  50	  99
  50	 102
  50	 103
  50	 105
  50	 106
  50	 107
  50	 108
  50	 110
  50	 111
  50	 112
  50	 118
  50	 119
  51	  53
  51	  55
  51	  56
  51	  57
  51	  60
  51	  61
  51	  64
  51	  66
  51	  67
  51	  69
  51	  74
  51	  75
  51	  78
  51	  79
  51	  80
  51	  82
  51	  83
  51	  86
  51	  88
  51	  89
  51	  90
  51	  95
  51	  96
  51	  97
  51	  98
  51	  99
  51	 100
  51	 101
  51	 104
  51	 106
  51	 109
  51	 111
  51	 112
  51	 114
  51	 117
  52	  53
  52	  55
  52	  58
  52	  59
  52	  60
  52	  62
  52	  63
  52	  64
  52	  65
  52	  66
  52	  67
  52	  68
  52	  71
  52	  74
  52	  75
  52	  76
  52	  81
  52	  83
  52	  85
  52	  86
  52	  88
  52	  90
  52	  93
  52	  97
  52	  98
  52	  99
  52	 100
  52	 103
  52	 106
  52	 108
  52	 109
  52	 111
  52	 112
  52	 113
  52	 114
  52	 115
  52	 116
  52	 117
  52	 118
  53	  54
  53	  55
  53	  56
  53	  58
  53	  59
  53	  61
  53	  64
  53	  65
  53	  66
  53	  67
  53	  68
  53	  69
  53	  70
  53	  72
  53	  75
  53	  76
  53	  77
  53	  78
  53	  79
  53	  81
  53	  82
  53	  83
  53	  86
  53	  87
  53	  90
  53	  92
  53	  93
  53	  94
  53	  95
  53	  97
  53	  98
  53	 100
  53	 101
  53	 102
  53	 103
  53	 104
  53	 105
  53	 107
  53	 111
  53	 115
  53	 119
  54	  56
  54	  57
  54	  58
  54	  59
  54	  61
  54	  63
  54	  65
  54	  66
  54	  67
  54	  68
  54	  71
  54	  73
  54	  75
  54	  76
  54	  77
  54	  78
  54	  81
  54	  82
  54	  83
  54	  84
  54	  85
  54	  86
  54	  88
  54	  92
  54	  93
  54	  96
  54	  97
  54	  99
  54	 100
  54	 102
  54	 108
  54	 114
  54	 116
  55	  56
  55	  58
  55	  60
  55	  61
  55	  64
  55	  65
  55	  67
  55	  68
  55	  69
  55	  72
  55	  74
  55	  75
  55	  76
  55	  77
  55	  78
  55	  79
  55	  82
  55	  87
  55	  89
  55	  92
  55	  95
  55	  96
  55	  97
  55	  99
  55	 102
  55	 103
  55	 104
  55	 108
  55	 109
  55	 112
  55	 113
  55	 116
  55	 118
  56	  58
  56	  59
  56	  60
  56	  61
  56	  62
  56	  63
  56	  64
  56	  65
  56	  67
  56	  69
  56	  70
  56	  71
  56	  72
  56	  73
  56	  74
  56	  75
  56	  77
  56	  79
  56	  84
  56	  85
  56	  89
  56	  90
  56	  92
  56	  94
  56	  97
  56	  98
  56	 103
  56	 104
  56	 108
  56	 109
  56	 111
  56	 112
  56	 113
  56	 118
  57	  58
  57	  60
  57	  64
  57	  67
  57	  68
  57	  71
  57	  73
  57	  74
  57	  76
  57	  82
  57	  88
  57	  89
  57	  90
  57	  93
  57	  96
  57	 100
  57	 102
  57	 104
  57	 105
  57	 106
  57	 108
  57	 110
  57	 111
  57	 115
  57	 116
  57	 119
  58	  60
  58	  64
  58	  65
  58	  66
  58	  68
  58	  69
  58	  71
  58	  72
  58	  77
  58	  78
  58	  79
  58	  80
  58	  82
  58	  84
  58	  86
  58	  87
  58	  88
  58	  89
  58	  90
  58	  91
  58	  92
  58	  93
  58	  96
  58	  97
  58	 103
  58	 104
  58	 106
  58	 109
  58	 111
  58	 114
  58	 115
  58	 116
  59	  60
  59	  61
  59	  62
  59	  64
  59	  65
  59	  69
  59	  76
  59	  77
  59	  78
  59	  80
  59	  81
  59	  87
  59	  89
  59	  91
  59	  92
  59	  93
  59	  94
  59	  96
  59	  97
  59	 101
  59	 103
  59	 104
  59	 106
  59	 107
  59	 112
  59	 113
  59	 117
  59	 118
  60	  62
  60	  63
  60	  64
  60	  65
  60	  66
  60	  68
  60	  69
  60	  77
  60	  79
  60	  84
  60	  85
  60	  86
  60	  87
  60	  88
  60	  91
  60	  92
  60	  93
  60	  95
  60	  97
  60	  98
  60	  99
  60	 101
  60	 103
  60	 104
  60	 105
  60	 106
  60	 109
  60	 113
  60	 114
  60	 118
  61	  64
  61	  65
  61	  68
  61	  69
  61	  74
  61	  77
  61	  78
  61	  82
  61	  84
  61	  85
  61	  86
  61	  90
  61	  91
  61	  94
  61	 100
  61	 103
  61	 106
  61	 107
  61	 108
  61	 109
  61	 115
  61	 119
  62	  63
  62	  65
  62	  67
  62	  70
  62	  73
  62	  76
  62	  78
  62	  81
  62	  82
  62	  83
  62	  86
  62	  90
  62	  92
  62	  93
  62	  95
  62	  98
  62	  99
  62	 102
  62	 103
  62	 108
  62	 110
  62	 112
  62	 114
  62	 115
  62	 116
  62	 118
  63	  64
  63	  66
  63	  67
  63	  68
  63	  70
  63	  75
  63	  79
  63	  80
  63	  83
  63	  85
  63	  87
  63	  88
  63	  89
  63	  90
  63	  93
  63	  94
  63	  95
  63	  96
  63	  97
  63	  98
  63	 100
  63	 101
  63	 103
  63	 106
  63	 107
  63	 108
  63	 109
  63	 111
  63	 112
  63	 115
  64	  66
  64	  68
  64	  70
  64	  72
  64	  73
  64	  74
  64	  76
  64	  77
  64	  79
  64	  80
  64	  81
  64	  82
  64	  83
  64	  85
  64	  87
  64	  90
  64	  92
  64	  93
  64	  95
  64	  96
  64	  97
  64	  98
  64	 102
  64	 105
  64	 107
  64	 109
  64	 110
  64	 115
  64	 117
  65	  66
  65	  67
  65	  70
  65	  71
  65	  72
  65	  73
  65	  77
  65	  80
  65	  81
  65	  82
  65	  83
  65	  88
  65	  89
  65	  90
  65	  93
  65	  94
  65	  95
  65	  96
  65	  98
  65	 101
  65	 103
  65	 104
  65	 105
  65	 106
  65	 110
  65	 112
  65	 113
  65	 114
  65	 118
  66	  67
  66	  69
  66	  71
  66	  74
  66	  75
  66	  77
  66	  80
  66	  81
  66	  82
  66	  83
  66	  86
  66	  88
  66	  89
  66	  90
  66	  94
  66	  95
  66	  98
  66	  99
  66	 100
  66	 102
  66	 103
  66	 104
  66	 106
  66	 109
  66	 110
  66	 111
  66	 113
  66	 116
  67	  68
  67	  71
  67	  73
  67	  76
  67	  77
  67	  80
  67	  81
  67	  85
  67	  86
  67	  87
  67	  88
  67	  89
  67	  94
  67	  97
  67	  99
  67	 102
  67	 104
  67	 105
  67	 106
  67	 109
  67	 115
  67	 118
  67	 119
  68	  69
  68	  70
  68	  71
  68	  72
  68	  75
  68	  79
  68	  80
  68	  82
  68	  83
  68	  85
  68	  86
  68	  87
  68	  91
  68	  93
  68	  94
  68	  97
  68	 102
  68	 104
  68	 105
  68	 109
  68	 110
  68	 111
  68	 112
  68	 115
  68	 117
  68	 118
  68	 119
  69	  70
  69	  72
  69	  74
  69	  76
  69	  77
  69	  78
  69	  79
  69	  81
  69	  82
  69	  87
  69	  88
  69	  89
  69	  91
  69	  92
  69	  93
  69	  96
  69	  98
  69	 100
  69	 105
  69	 106
  69	 109
  69	 111
  69	 115
  69	 117
  69	 118
  70	  71
  70	  73
  70	  74
  70	  77
  70	  78
  70	  82
  70	  85
  70	  86
  70	  92
  70	  93
  70	  98
  70	  99
  70	 100
  70	 101
  70	 104
  70	 106
  70	 108
  70	 109
  70	 110
  70	 112
  70	 113
  70	 114
  70	 116
  70	 118
  71	  73
  71	  74
  71	  75
  71	  76
  71	  77
  71	  78
  71	  82
  71	  84
  71	  85
  71	  90
  71	  93
  71	  94
  71	  97
  71	  98
  71	  99
  71	 101
  71	 102
  71	 103
  71	 105
  71	 106
  71	 107
  71	 108
  71	 109
  71	 111
  71	 112
  71	 115
  71	 116
  72	  74
  72	  76
  72	  77
  72	  78
  72	  79
  72	  82
  72	  83
  72	  86
  72	  87
  72	  88
  72	  90
  72	  92
  72	  93
  72	  94
  72	  96
  72	 100
  72	 102
  72	 103
  72	 104
  72	 105
  72	 108
  72	 110
  72	 111
  72	 112
  72	 113
  72	 115
  72	 116
  72	 117
  72	 118
  73	  74
  73	  76
  73	  78
  73	  79
  73	  85
  73	  88
  73	  90
  73	  92
  73	  93
  73	  94
  73	  99
  73	 100
  73	 103
  73	 104
  73	 108
  73	 110
  73	 112
  73	 114
  73	 119
  74	  77
  74	  79
  74	  81
  74	  82
  74	  84
  74	  85
  74	  86
  74	  92
  74	  94
  74	  95
  74	  96
  74	  97
  74	  98
  74	  99
  74	 101
  74	 102
  74	 106
  74	 107
  74	 109
  74	 110
  74	 111
  74	 114
  74	 115
  74	 116
  74	 117
  74	 118
  75	  78
  75	  79
  75	  82
  75	  85
  75	  86
  75	  89
  75	  90
  75	  91
  75	  96
  75	  98
  75	 100
  75	 103
  75	 104
  75	 105
  75	 106
  75	 107
  75	 108
  75	 110
  75	 115
  75	 116
  75	 119
  76	  77
  76	  78
  76	  79
  76	  81
  76	  85
  76	  86
  76	  88
  76	  89
  76	  92
  76	  93
  76	  94
  76	  97
  76	  98
  76	 100
  76	 104
  76	 105
  76	 106
  76	 108
  76	 109
  76	 110
  76	 112
  76	 113
  76	 114
  76	 115
  76	 117
  76	 119
  77	  79
  77	  80
  77	  81
  77	  83
  77	  84
  77	  89
  77	  90
  77	  91
  77	  93
  77	  95
  77	  98
  77	  99
  77	 101
  77	 104
  77	 105
  77	 106
  77	 110
  77	 111
  77	 113
  77	 115
  77	 116
  77	 119
  78	  87
  78	  88
  78	  89
  78	  90
  78	  92
  78	  93
  78	  95
  78	  97
  78	  98
  78	  99
  78	 101
  78	 103
  78	 107
  78	 108
  78	 109
  78	 110
  78	 111
  78	 112
  78	 113
  78	 114
  78	 115
  78	 118
  79	  80
  79	  81
  79	  83
  79	  84
  79	  85
  79	  87
  79	  88
  79	  92
  79	  93
  79	  94
  79	  96
  79	  99
  79	 100
  79	 103
  79	 104
  79	 107
  79	 109
  79	 110
  80	  81
  80	  83
  80	  85
  80	  86
  80	  88
  80	  91
  80	  92
  80	  95
  80	  96
  80	  98
  80	 100
  80	 102
  80	 103
  80	 106
  80	 108
  80	 110
  80	 111
  80	 118
  81	  84
  81	  90
  81	  92
  81	  93
  81	  95
  81	  96
  81	  98
  81	 102
  81	 103
  81	 104
  81	 105
  81	 106
  81	 108
  81	 112
  81	 114
  81	 116
  81	 117
  81	 118
  81	 119
  82	  83
  82	  84
  82	  88
  82	  89
  82	  94
  82	  95
  82	  99
  82	 100
  82	 103
  82	 104
  82	 105
  82	 109
  82	 111
  82	 114
  82	 115
  82	 116
  82	 119
  83	  86
  83	  88
  83	  89
  83	  93
  83	  94
  83	  95
  83	  96
  83	  97
  83	  99
  83	 100
  83	 104
  83	 105
  83	 106
  83	 107
  83	 109
  83	 110
  83	 111
  83	 112
  83	 114
  83	 116
  83	 117
  83	 119
  84	  85
  84	  89
  84	  90
  84	  91
  84	  94
  84	  95
  84	  97
  84	  99
  84	 102
  84	 104
  84	 105
  84	 106
  84	 113
  84	 115
  84	 116
  84	 117
  84	 118
  84	 119
  85	  87
  85	  88
  85	  89
  85	  90
  85	  95
  85	  96
  85	 100
  85	 101
  85	 109
  85	 113
  85	 114
  85	 115
  85	 116
  85	 117
  85	 118
  85	 119
  86	  87
  86	  88
  86	  90
  86	  94
  86	  95
  86	  99
  86	 100
  86	 101
  86	 103
  86	 104
  86	 105
  86	 106
  86	 109
  86	 112
  86	 114
  86	 116
  86	 117
  86	 119
  87	  88
  87	  89
  87	  90
  87	  96
  87	 102
  87	 106
  87	 107
  87	 109
  87	 110
  87	 111
  87	 112
  87	 114
  87	 116
  87	 117
  87	 119
  88	  89
  88	  90
  88	  92
  88	  93
  88	  94
  88	  95
  88	  96
  88	  98
  88	 101
  88	 102
  88	 104
  88	 105
  88	 107
  88	 108
  88	 111
  88	 112
  88	 113
  88	 115
  88	 116
  88	 117
  88	 118
  88	 119
  89	  93
  89	  94
  89	  95
  89	  97
  89	  99
  89	 100
  89	 101
  89	 105
  89	 106
  89	 107
  89	 108
  89	 109
  89	 110
  89	 112
  89	 113
  89	 114
  89	 119
  90	  91
  90	  92
  90	  94
  90	  96
  90	  99
  90	 101
  90	 102
  90	 103
  90	 105
  90	 106
  90	 107
  90	 110
  90	 112
  90	 113
  90	 115
  90	 118
  91	  93
  91	  95
  91	  96
  91	  98
  91	  99
  91	 100
  91	 101
  91	 102
  91	 104
  91	 105
  91	 106
  91	 109
  91	 112
  91	 114
  91	 117
  91	 118
  92	  93
  92	  94
  92	  96
  92	  98
  92	  99
  92	 100
  92	 101
  92	 106
  92	 108
  92	 110
  92	 112
  92	 114
  92	 115
  92	 118
  92	 119
  93	  94
  93	  95
  93	  99
  93	 103
  93	 105
  93	 106
  93	 108
  93	 109
  93	 112
  93	 114
  93	 115
  93	 116
  93	 117
  93	 118
  93	 119
  94	  95
  94	  97
  94	 104
  94	 105
  94	 108
  94	 112
  94	 115
  94	 116
  94	 119
  95	  98
  95	  99
  95	 100
  95	 101
  95	 102
  95	 103
  95	 104
  95	 105
  95	 106
  95	 108
  95	 109
  95	 111
  95	 114
  95	 115
  95	 116
  95	 117
  95	 118
  96	  97
  96	  98
  96	  99
  96	 102
  96	 103
  96	 105
  96	 107
  96	 109
  96	 111
  96	 114
  96	 118
  97	  98
  97	 100
  97	 101
  97	 102
  97	 103
  97	 104
  97	 112
  97	 113
  97	 117
  97	 119
  98	  99
  98	 100
  98	 101
  98	 102
  98	 107
  98	 109
  98	 115
  98	 116
  98	 117
  99	 100
  99	 101
  99	 102
  99	 104
  99	 105
  99	 109
  99	 111
  99	 113
  99	 114
  99	 116
  99	 117
  99	 118
 100	 101
 100	 102
 100	 103
 100	 104
 100	 106
 100	 107
 100	 110
 100	 111
 100	 114
 100	 115
 100	 118
 100	 119
 101	 103
 101	 105
 101	 108
 101	 109
 101	 110
 101	 111
 101	 112
 101	 113
 101	 117
 101	 118
 102	 103
 102	 108
 102	 109
 102	 110
 102	 111
 102	 113
 102	 114
 102	 116
 102	 117
 103	 109
 103	 110
 103	 113
 103	 114
 103	 115
 103	 116
 103	 117
 103	 118
 104	 106
 104	 108
 104	 119
 105	 106
 105	 109
 105	 111
 105	 112
 105	 113
 105	 114
 105	 115
 105	 116
 105	 119
 106	 107
 106	 108
 106	 109
 106	 110
 106	 112
 106	 113
 106	 116
 106	 117
 106	 118
 107	 109
 107	 111
 107	 114
 108	 109
 108	 110
 108	 111
 108	 114
 108	 117
 108	 118
 109	 110
 109	 111
 109	 113
 109	 115
 109	 116
 109	 117
 109	 118
 109	 119
 110	 111
 110	 113
 110	 115
 110	 118
 111	 114
 111	 117
 112	 114
 112	 119
 113	 114
 113	 116
 113	 118
 113	 119
 114	 116
 115	 116
 115	 117
 115	 118
 115	 119
 116	 118
 116	 119
 117	 119
;
